[[53, 14, 59, 11, 66, 65, 38, 10, 31, 58, 72, 12, 40], [39, 9, 25, 55, 18, 50, 32, 44, 3, 24, 49, 16, 63], [23, 56, 41, 43, 42, 64, 22, 62, 73, 33, 2, 68, 6, 51, 17, 26, 67, 76], [75, 4, 45, 29, 48, 30, 74, 28, 61, 21, 47, 69, 36, 71, 60, 70], [20, 37, 5, 15, 57, 27, 13, 54, 19, 8, 52, 34, 46, 7, 35]]